words_hard_train/2097.qaiger
aag 156 16 0 1 140
2
4
12
14
18
20
30
32
44
46
58
60
72
74
86
88
313
6 2 4
8 3 5
10 7 9
16 12 14
22 19 21
24 16 23
26 18 20
28 25 27
34 31 33
36 30 32
38 35 37
40 29 38
42 41 37
48 45 47
50 44 46
52 49 51
54 43 52
56 55 51
62 59 61
64 58 60
66 63 65
68 57 66
70 69 65
76 73 75
78 72 74
80 77 79
82 71 80
84 83 79
90 87 89
92 86 88
94 91 93
96 85 94
98 97 93
100 10 99
102 11 98
104 101 103
106 13 19
108 107 2
110 109 31
112 111 2
114 113 45
116 115 2
118 117 59
120 118 73
122 121 2
124 123 86
126 122 87
128 125 127
130 119 2
132 131 73
134 130 72
136 133 135
138 116 58
140 119 139
142 112 44
144 143 115
146 12 2
148 146 19
150 147 18
152 149 151
154 153 12
156 108 30
158 157 111
160 154 158
162 144 160
164 140 162
166 136 164
168 128 167
170 129 166
172 169 171
174 23 27
176 174 17
178 13 15
180 179 175
182 177 181
184 28 39
186 185 41
188 182 187
190 42 53
192 191 55
194 188 193
196 56 67
198 197 69
200 194 199
202 70 81
204 203 83
206 200 205
208 84 95
210 209 97
212 207 210
214 206 211
216 213 215
218 172 216
220 189 192
222 221 195
224 223 145
226 225 163
228 174 153
230 229 181
232 230 159
234 233 189
236 183 186
238 234 237
240 239 161
242 231 158
244 240 243
246 222 144
248 244 247
250 226 249
252 141 163
254 253 165
256 195 198
258 257 201
260 254 258
262 251 261
264 201 204
266 265 207
268 137 165
270 269 167
272 267 271
274 263 273
276 255 259
278 274 277
280 219 279
282 266 270
284 280 283
286 173 217
288 285 287
290 105 289
292 120 87
294 292 2
296 295 171
298 214 296
300 290 299
302 104 288
304 303 215
306 305 299
308 303 296
310 307 309
312 301 311
i0 1 x2[7]
i1 2 y1[7]
i2 1 x2[0]
i3 2 y1[0]
i4 1 x2[1]
i5 2 y1[1]
i6 1 x2[2]
i7 2 y1[2]
i8 1 x2[3]
i9 2 y1[3]
i10 1 x2[4]
i11 2 y1[4]
i12 1 x2[5]
i13 2 y1[5]
i14 1 x2[6]
i15 2 y1[6]
o0 bv[0]
c
simplified
  <
    add
      abs
        1 x2
      1
    add
      1 x2
      2 y1
