words_hard_train/2097.qaiger.qdimacs
p cnf 156 421
a 1 36 6 9 43 15 22 29 0
e 2 3 4 5 7 8 10 11 12 13 14 16 17 18 19 20 21 23 24 25 26 27 28 30 31 32 33 34 35 37 38 39 40 41 42 44 45 46 47 48 49 50 51 52 53 54 55 56 57 58 59 60 61 62 63 64 65 66 67 68 69 70 71 72 73 74 75 76 77 78 79 80 81 82 83 84 85 86 87 88 89 90 91 92 93 94 95 96 97 98 99 100 101 102 103 104 105 106 107 108 109 110 111 112 113 114 115 116 117 118 119 120 121 122 123 124 125 126 127 128 129 130 131 132 133 134 135 136 137 138 139 140 141 142 143 144 145 146 147 148 149 150 151 152 153 154 155 156 0
-1 -2 3 0
1 -3 0
2 -3 0
1 2 4 0
-1 -4 0
-2 -4 0
3 4 5 0
-3 -5 0
-4 -5 0
-6 -7 8 0
6 -8 0
7 -8 0
9 10 11 0
-9 -11 0
-10 -11 0
-8 11 12 0
8 -12 0
-11 -12 0
-9 -10 13 0
9 -13 0
10 -13 0
12 13 14 0
-12 -14 0
-13 -14 0
15 16 17 0
-15 -17 0
-16 -17 0
-15 -16 18 0
15 -18 0
16 -18 0
17 18 19 0
-17 -19 0
-18 -19 0
14 -19 20 0
-14 -20 0
19 -20 0
20 18 21 0
-20 -21 0
-18 -21 0
22 23 24 0
-22 -24 0
-23 -24 0
-22 -23 25 0
22 -25 0
23 -25 0
24 25 26 0
-24 -26 0
-25 -26 0
21 -26 27 0
-21 -27 0
26 -27 0
27 25 28 0
-27 -28 0
-25 -28 0
29 30 31 0
-29 -31 0
-30 -31 0
-29 -30 32 0
29 -32 0
30 -32 0
31 32 33 0
-31 -33 0
-32 -33 0
28 -33 34 0
-28 -34 0
33 -34 0
34 32 35 0
-34 -35 0
-32 -35 0
36 37 38 0
-36 -38 0
-37 -38 0
-36 -37 39 0
36 -39 0
37 -39 0
38 39 40 0
-38 -40 0
-39 -40 0
35 -40 41 0
-35 -41 0
40 -41 0
41 39 42 0
-41 -42 0
-39 -42 0
43 44 45 0
-43 -45 0
-44 -45 0
-43 -44 46 0
43 -46 0
44 -46 0
45 46 47 0
-45 -47 0
-46 -47 0
42 -47 48 0
-42 -48 0
47 -48 0
48 46 49 0
-48 -49 0
-46 -49 0
-5 49 50 0
5 -50 0
-49 -50 0
5 -49 51 0
-5 -51 0
49 -51 0
50 51 52 0
-50 -52 0
-51 -52 0
6 9 53 0
-6 -53 0
-9 -53 0
53 -1 54 0
-53 -54 0
1 -54 0
54 15 55 0
-54 -55 0
-15 -55 0
55 -1 56 0
-55 -56 0
1 -56 0
56 22 57 0
-56 -57 0
-22 -57 0
57 -1 58 0
-57 -58 0
1 -58 0
58 29 59 0
-58 -59 0
-29 -59 0
-59 36 60 0
59 -60 0
-36 -60 0
60 -1 61 0
-60 -61 0
1 -61 0
61 -43 62 0
-61 -62 0
43 -62 0
-61 43 63 0
61 -63 0
-43 -63 0
62 63 64 0
-62 -64 0
-63 -64 0
59 -1 65 0
-59 -65 0
1 -65 0
65 36 66 0
-65 -66 0
-36 -66 0
-65 -36 67 0
65 -67 0
36 -67 0
66 67 68 0
-66 -68 0
-67 -68 0
-58 -29 69 0
58 -69 0
29 -69 0
59 69 70 0
-59 -70 0
-69 -70 0
-56 -22 71 0
56 -71 0
22 -71 0
71 57 72 0
-71 -72 0
-57 -72 0
-6 -1 73 0
6 -73 0
1 -73 0
-73 9 74 0
73 -74 0
-9 -74 0
73 -9 75 0
-73 -75 0
9 -75 0
74 75 76 0
-74 -76 0
-75 -76 0
76 -6 77 0
-76 -77 0
6 -77 0
-54 -15 78 0
54 -78 0
15 -78 0
78 55 79 0
-78 -79 0
-55 -79 0
-77 -79 80 0
77 -80 0
79 -80 0
-72 -80 81 0
72 -81 0
80 -81 0
-70 -81 82 0
70 -82 0
81 -82 0
-68 -82 83 0
68 -83 0
82 -83 0
-64 83 84 0
64 -84 0
-83 -84 0
64 -83 85 0
-64 -85 0
83 -85 0
84 85 86 0
-84 -86 0
-85 -86 0
11 13 87 0
-11 -87 0
-13 -87 0
-87 8 88 0
87 -88 0
-8 -88 0
6 7 89 0
-6 -89 0
-7 -89 0
89 87 90 0
-89 -90 0
-87 -90 0
88 90 91 0
-88 -91 0
-90 -91 0
-14 19 92 0
14 -92 0
-19 -92 0
92 20 93 0
-92 -93 0
-20 -93 0
-91 93 94 0
91 -94 0
-93 -94 0
-21 26 95 0
21 -95 0
-26 -95 0
95 27 96 0
-95 -96 0
-27 -96 0
-94 96 97 0
94 -97 0
-96 -97 0
-28 33 98 0
28 -98 0
-33 -98 0
98 34 99 0
-98 -99 0
-34 -99 0
-97 99 100 0
97 -100 0
-99 -100 0
-35 40 101 0
35 -101 0
-40 -101 0
101 41 102 0
-101 -102 0
-41 -102 0
-100 102 103 0
100 -103 0
-102 -103 0
-42 47 104 0
42 -104 0
-47 -104 0
104 48 105 0
-104 -105 0
-48 -105 0
103 -105 106 0
-103 -106 0
105 -106 0
-103 105 107 0
103 -107 0
-105 -107 0
106 107 108 0
-106 -108 0
-107 -108 0
-86 -108 109 0
86 -109 0
108 -109 0
94 -96 110 0
-94 -110 0
96 -110 0
110 97 111 0
-110 -111 0
-97 -111 0
111 72 112 0
-111 -112 0
-72 -112 0
112 81 113 0
-112 -113 0
-81 -113 0
-87 76 114 0
87 -114 0
-76 -114 0
114 90 115 0
-114 -115 0
-90 -115 0
-115 79 116 0
115 -116 0
-79 -116 0
116 94 117 0
-116 -117 0
-94 -117 0
91 -93 118 0
-91 -118 0
93 -118 0
-117 118 119 0
117 -119 0
-118 -119 0
119 80 120 0
-119 -120 0
-80 -120 0
115 -79 121 0
-115 -121 0
79 -121 0
-120 121 122 0
120 -122 0
-121 -122 0
-111 -72 123 0
111 -123 0
72 -123 0
-122 123 124 0
122 -124 0
-123 -124 0
-113 124 125 0
113 -125 0
-124 -125 0
70 81 126 0
-70 -126 0
-81 -126 0
126 82 127 0
-126 -127 0
-82 -127 0
97 -99 128 0
-97 -128 0
99 -128 0
128 100 129 0
-128 -129 0
-100 -129 0
-127 -129 130 0
127 -130 0
129 -130 0
125 130 131 0
-125 -131 0
-130 -131 0
100 -102 132 0
-100 -132 0
102 -132 0
132 103 133 0
-132 -133 0
-103 -133 0
68 82 134 0
-68 -134 0
-82 -134 0
134 83 135 0
-134 -135 0
-83 -135 0
133 135 136 0
-133 -136 0
-135 -136 0
131 136 137 0
-131 -137 0
-136 -137 0
127 129 138 0
-127 -138 0
-129 -138 0
-137 138 139 0
137 -139 0
-138 -139 0
109 139 140 0
-109 -140 0
-139 -140 0
-133 -135 141 0
133 -141 0
135 -141 0
-140 141 142 0
140 -142 0
-141 -142 0
86 108 143 0
-86 -143 0
-108 -143 0
142 143 144 0
-142 -144 0
-143 -144 0
52 144 145 0
-52 -145 0
-144 -145 0
-60 43 146 0
60 -146 0
-43 -146 0
-146 -1 147 0
146 -147 0
1 -147 0
147 85 148 0
-147 -148 0
-85 -148 0
-107 -148 149 0
107 -149 0
148 -149 0
-145 149 150 0
145 -150 0
-149 -150 0
-52 -144 151 0
52 -151 0
144 -151 0
151 107 152 0
-151 -152 0
-107 -152 0
152 149 153 0
-152 -153 0
-149 -153 0
151 -148 154 0
-151 -154 0
148 -154 0
153 154 155 0
-153 -155 0
-154 -155 0
150 155 156 0
-150 -156 0
-155 -156 0
-156 0
